NAME : morphed23-5-10
COMMENT : Generated using the function morphInstances from the R-package netgen (Bossek,2015) - Number of clusters: 5 Alpha: 0.5
TYPE : TSP
DIMENSION : 23
EDGE_WEIGHT_TYPE : EUC_2D
NODE_COORD_SECTION
1 56.9724107054 32.3986404232
2 34.4944221951 42.8551155551
3 35.9598584643 71.4721301967
4 77.6395224062 55.3057584618
5 27.9609313299 34.3948316362
6 22.0702810007 77.3095903022
7 34.0383550402 39.5157138628
8 26.3592739338 59.8682247185
9 67.115251702 12.3843979303
10 51.6666508198 19.0494401193
11 43.020626765 85.4000305357
12 60.6503674617 36.6657112857
13 13.0790788034 79.9707365217
14 42.4416714244 78.9967624896
15 28.0634498785 88.4078470123
16 44.2823624881 58.9360225701
17 12.585166486 60.8695058398
18 47.3838577866 27.1626212976
19 50.0324608752 22.5091159588
20 85.0331104595 5.4445861891
21 87.9856427821 43.8650784674
22 61.744213934 24.9537742259
23 80.8160654678 13.6878140137
EOF
